************************************************************************
file with basedata            : mm34_.bas
initial value random generator: 393728935
************************************************************************
projects                      :  1
jobs (incl. supersource/sink ):  12
horizon                       :  84
RESOURCES
  - renewable                 :  2   R
  - nonrenewable              :  2   N
  - doubly constrained        :  0   D
************************************************************************
PROJECT INFORMATION:
pronr.  #jobs rel.date duedate tardcost  MPM-Time
    1     10      0       15        7       15
************************************************************************
PRECEDENCE RELATIONS:
jobnr.    #modes  #successors   successors
   1        1          3           2   3   4
   2        3          2           8  10
   3        3          2           8   9
   4        3          2           5   7
   5        3          3           6   9  10
   6        3          1           8
   7        3          1          11
   8        3          1          11
   9        3          1          12
  10        3          1          12
  11        3          1          12
  12        1          0        
************************************************************************
REQUESTS/DURATIONS:
jobnr. mode duration  R 1  R 2  N 1  N 2
------------------------------------------------------------------------
  1      1     0       0    0    0    0
  2      1     5       8   10    0    7
         2     5       8    9    4    0
         3    10       6    8    1    0
  3      1     3       4    8    3    0
         2     8       4    7    0    9
         3    10       2    7    0    5
  4      1     3      10    7    0    6
         2     7       8    6    2    0
         3    10       6    3    1    0
  5      1     2       7    6    0    9
         2     7       7    6    0    8
         3    10       4    5    0    7
  6      1     2       5    9    7    0
         2     5       4    9    0    3
         3     7       4    9    6    0
  7      1     7       8   10    8    0
         2     8       5    6    0    8
         3    10       3    3    4    0
  8      1     5       2    9    0    6
         2     5       2    9   10    0
         3     7       1    9    9    0
  9      1     1       4    8    0    3
         2     3       2    5    5    0
         3     6       2    5    4    0
 10      1     4       7    9    0    9
         2     8       6    4    0    8
         3     8       7    6    4    0
 11      1     3       6    2    0    7
         2     6       4    1    0    4
         3     6       5    2   10    0
 12      1     0       0    0    0    0
************************************************************************
RESOURCEAVAILABILITIES:
  R 1  R 2  N 1  N 2
   10   14   27   37
************************************************************************
MAXIMAL LAGS:
from  to  type  delay
    1   12   ES      0
    1    2   ES      0
    2   12   ES      0
    1    3   ES      0
    3   12   ES      0
    1    4   ES      0
    4   12   ES      0
    1    5   ES      0
    5   12   ES      0
    1    6   ES      0
    6   12   ES      0
    1    7   ES      0
    7   12   ES      0
    1    8   ES      0
    8   12   ES      0
    1    9   ES      0
    9   12   ES      0
    1   10   ES      0
   10   12   ES      0
    1   11   ES      0
   11   12   ES      0
    1   12   ES      0
    2    8   SS     11
    2    8   SE     10
    8    2   SE      0
    2    8   ES      0
    2    8   EE      1
    2   10   SS      9
    2   10   SE      8
    2   10   ES     11
    2   10   EE     -1
    3    8   SS      3
    3    8   SE     -7
    3    8   ES      7
    3    8   EE     -6
    3    9   SS     -3
    3    9   SE     10
    3    9   ES     11
    3    9   EE    -10
    4    5   SS      9
    4    5   SE      3
    4    5   ES     -8
    4    5   EE     -7
    4    7   SS     -6
    4    7   SE     -7
    4    7   ES      7
    4    7   EE      3
    5    6   SS     -9
    5    6   SE      1
    5    6   ES      3
    5    6   EE     -3
    5    9   SS     -5
    5    9   SE     -6
    5    9   ES      5
    5    9   EE    -11
    5   10   SS    -12
    5   10   SE     -1
    5   10   ES     -4
    5   10   EE     -1
    6    8   SS      9
    6    8   SE     -7
    6    8   ES     -7
    6    8   EE      4
    7   11   SS    -11
    7   11   SE    -10
    7   11   ES     -2
    7   11   EE      1
    8   11   SS     -9
    8   11   SE      7
    8   11   ES     -5
    8   11   EE     -9
************************************************************************
